unsat
(forall ((A (_ BitVec 5))
         (B (_ BitVec 5))
         (C (_ BitVec 32))
         (D (_ BitVec 1))
         (E (_ BitVec 32))
         (F (_ BitVec 1))
         (G (_ BitVec 32))
         (H (_ BitVec 32))
         (I (_ BitVec 1))
         (J (_ BitVec 1))
         (K (_ BitVec 1))
         (L (_ BitVec 1))
         (M (_ BitVec 1))
         (N (_ BitVec 1))
         (O (_ BitVec 2))
         (P (_ BitVec 1))
         (Q (_ BitVec 1))
         (R (_ BitVec 1))
         (S (_ BitVec 1))
         (T (_ BitVec 1))
         (U (_ BitVec 1))
         (V (_ BitVec 1))
         (W (_ BitVec 1))
         (X (_ BitVec 1))
         (Y (_ BitVec 1))
         (Z (_ BitVec 1))
         (A1 (_ BitVec 1))
         (B1 (_ BitVec 1))
         (C1 (_ BitVec 32))
         (D1 (_ BitVec 4))
         (E1 (_ BitVec 32))
         (F1 (_ BitVec 1))
         (G1 (_ BitVec 1))
         (H1 (_ BitVec 32))
         (I1 (_ BitVec 1))
         (J1 (_ BitVec 1))
         (K1 (_ BitVec 1))
         (L1 (_ BitVec 1))
         (M1 (_ BitVec 32))
         (N1 (_ BitVec 1))
         (O1 (_ BitVec 1))
         (P1 (_ BitVec 1))
         (Q1 (_ BitVec 1))
         (R1 (_ BitVec 32))
         (S1 (_ BitVec 1))
         (T1 (_ BitVec 1))
         (U1 (_ BitVec 1))
         (V1 (_ BitVec 1))
         (W1 (_ BitVec 2))
         (X1 (_ BitVec 1))
         (Y1 (_ BitVec 1))
         (Z1 (_ BitVec 1))
         (A2 (_ BitVec 32))
         (B2 (_ BitVec 8))
         (C2 (_ BitVec 32))
         (D2 (_ BitVec 32))
         (E2 (_ BitVec 1))
         (F2 (_ BitVec 1))
         (G2 (_ BitVec 32))
         (H2 (_ BitVec 32))
         (I2 (_ BitVec 32))
         (J2 (_ BitVec 1))
         (K2 (_ BitVec 1))
         (L2 (_ BitVec 32))
         (M2 (_ BitVec 1))
         (N2 (_ BitVec 32))
         (O2 (_ BitVec 32))
         (P2 (_ BitVec 32))
         (Q2 (_ BitVec 1))
         (R2 (_ BitVec 1))
         (S2 (_ BitVec 1))
         (T2 (_ BitVec 1))
         (U2 (_ BitVec 1))
         (V2 (_ BitVec 1))
         (W2 (_ BitVec 1))
         (X2 (_ BitVec 1))
         (Y2 (_ BitVec 32))
         (Z2 (_ BitVec 1))
         (A3 (_ BitVec 32))
         (B3 (_ BitVec 32))
         (C3 (_ BitVec 32))
         (D3 (_ BitVec 1))
         (E3 (_ BitVec 32))
         (F3 (_ BitVec 32))
         (G3 (_ BitVec 32))
         (H3 (_ BitVec 32))
         (I3 (_ BitVec 32))
         (J3 (_ BitVec 32))
         (K3 (_ BitVec 1))
         (L3 (_ BitVec 32))
         (M3 (_ BitVec 32))
         (N3 (_ BitVec 32))
         (O3 (_ BitVec 32))
         (P3 (_ BitVec 32))
         (Q3 (_ BitVec 32))
         (R3 (_ BitVec 1))
         (S3 (_ BitVec 32))
         (T3 (_ BitVec 32))
         (U3 (_ BitVec 32))
         (V3 (_ BitVec 32))
         (W3 (_ BitVec 5))
         (X3 (_ BitVec 1))
         (Y3 (_ BitVec 1))
         (Z3 (_ BitVec 1))
         (A4 (_ BitVec 1))
         (B4 (_ BitVec 1))
         (C4 (_ BitVec 1))
         (D4 (_ BitVec 1))
         (E4 (_ BitVec 1))
         (F4 (_ BitVec 1))
         (G4 (_ BitVec 1))
         (H4 (_ BitVec 1))
         (I4 (_ BitVec 1))
         (J4 (_ BitVec 1))
         (K4 (_ BitVec 1))
         (L4 (_ BitVec 1))
         (M4 (_ BitVec 1))
         (N4 (_ BitVec 1))
         (O4 (_ BitVec 1))
         (P4 (_ BitVec 1))
         (Q4 (_ BitVec 32))
         (R4 (_ BitVec 32))
         (S4 (_ BitVec 5))
         (T4 (_ BitVec 32))
         (U4 (_ BitVec 1))
         (V4 (_ BitVec 32))
         (W4 (_ BitVec 5))
         (X4 (_ BitVec 1))
         (Y4 (_ BitVec 32))
         (Z4 (_ BitVec 32))
         (A5 (_ BitVec 1))
         (B5 (_ BitVec 32))
         (C5 (_ BitVec 16))
         (D5 (_ BitVec 32))
         (E5 (_ BitVec 32))
         (F5 (_ BitVec 32))
         (G5 (_ BitVec 1))
         (H5 (_ BitVec 32))
         (I5 (_ BitVec 5))
         (J5 (_ BitVec 1))
         (K5 (_ BitVec 8))
         (L5 (_ BitVec 1))
         (M5 (_ BitVec 5))
         (N5 (_ BitVec 32))
         (O5 (_ BitVec 1))
         (P5 (_ BitVec 1)))
  (! (let ((a!1 (or (not (= P5 #b1)) (not (= ((_ extract 4 4) B2) #b1))))
           (a!2 (or (= P1 #b1)
                    (not (= Q2 #b1))
                    (not (= P5 #b1))
                    (= U4 #b0)
                    (not (= ((_ extract 4 4) L2) #b1))))
           (a!3 (or (not ((_ bit2bool 0) X4)) (not (= ((_ extract 1 1) O) #b0)))))
     (let ((a!4 (and (or (not (= T2 #b0)) (not (= V2 #b1)))
                     (or (= D #b1) (= V #b0) (not (= X4 #b1)) (not (= U2 #b1)))
                     (or (not (= P5 #b0)) (= X4 #b0))
                     (or (= D #b1) (= V #b0) (not (= Y1 #b1)) (not (= P5 #b1)))
                     a!1
                     (or (= H1 V4) (not ((_ bit2bool 0) X4)))
                     (or (= U4 #b0) (not ((_ bit2bool 0) X4)))
                     a!2
                     (or (= L1 #b0)
                         (not (= P5 #b1))
                         (not (= E2 #b1))
                         (= U4 #b0))
                     (or (= Y1 #b1)
                         (= K3 #b0)
                         (not (= V #b0))
                         (not (= P5 #b1))
                         (not (= K2 #b1)))
                     (or (= U2 #b1)
                         (not (= T #b1))
                         (not (= V #b0))
                         (not (= P5 #b1))
                         (not (= K2 #b1)))
                     (or (not (= O #b00))
                         (= L1 #b0)
                         (not (= P5 #b1))
                         (not (= E2 #b1)))
                     a!3)))
       (= (INV!slice!1 A
                       B
                       C
                       D
                       E
                       F
                       G
                       H
                       I
                       J
                       K
                       L
                       M
                       N
                       O
                       P
                       Q
                       R
                       S
                       T
                       U
                       V
                       W
                       X
                       Y
                       Z
                       A1
                       B1
                       C1
                       D1
                       E1
                       F1
                       G1
                       H1
                       I1
                       J1
                       K1
                       L1
                       M1
                       N1
                       O1
                       P1
                       Q1
                       R1
                       S1
                       T1
                       U1
                       V1
                       W1
                       X1
                       Y1
                       Z1
                       A2
                       B2
                       C2
                       D2
                       E2
                       F2
                       G2
                       H2
                       I2
                       J2
                       K2
                       L2
                       M2
                       N2
                       O2
                       P2
                       Q2
                       R2
                       S2
                       T2
                       U2
                       V2
                       W2
                       X2
                       Y2
                       Z2
                       A3
                       B3
                       C3
                       D3
                       E3
                       F3
                       G3
                       H3
                       I3
                       J3
                       K3
                       L3
                       M3
                       N3
                       O3
                       P3
                       Q3
                       R3
                       S3
                       T3
                       U3
                       V3
                       W3
                       X3
                       Y3
                       Z3
                       A4
                       B4
                       C4
                       D4
                       E4
                       F4
                       G4
                       H4
                       I4
                       J4
                       K4
                       L4
                       M4
                       N4
                       O4
                       P4
                       Q4
                       R4
                       S4
                       T4
                       U4
                       V4
                       W4
                       X4
                       Y4
                       Z4
                       A5
                       B5
                       C5
                       D5
                       E5
                       F5
                       G5
                       H5
                       I5
                       J5
                       K5
                       L5
                       M5
                       N5
                       O5
                       P5)
          a!4)))
     :weight 0))
